networks/zoo_42_185/standard/zoo_42_185.sol
<?xml version = "1.0" encoding="UTF-8" standalone="yes"?>
<CPLEXSolution version="1.2">
 <header
   problemName="networks/zoo_42_185/zoo_42_185.lp"
   solutionName="incumbent"
   solutionIndex="-1"
   objectiveValue="22"
   solutionTypeValue="3"
   solutionTypeString="primal"
   solutionStatusValue="101"
   solutionStatusString="integer optimal solution"
   solutionMethodString="mip"
   primalFeasible="1"
   dualFeasible="1"
   MIPNodes="0"
   MIPIterations="2470"
   writeLevel="3"/>
 <quality
   epInt="1.0000000000000001e-05"
   epRHS="9.9999999999999995e-07"
   maxIntInfeas="0"
   maxPrimalInfeas="2.000000165480742e-09"
   maxX="4"
   maxSlack="10"/>
 <variables>
  <variable name="Y(9,4)" index="323" value="1"/>
  <variable name="Y(10,6)" index="365" value="1"/>
  <variable name="Y(14,10)" index="529" value="1"/>
  <variable name="Y(16,12)" index="611" value="1"/>
  <variable name="Y(17,13)" index="652" value="1"/>
  <variable name="Y(19,15)" index="734" value="1"/>
  <variable name="Y(22,19)" index="858" value="1"/>
  <variable name="Y(47,11)" index="1850" value="1"/>
  <variable name="Y(53,5)" index="2084" value="1"/>
  <variable name="Y(58,14)" index="2293" value="1"/>
  <variable name="Y(60,2)" index="2361" value="1"/>
  <variable name="Y(96,9)" index="3808" value="1"/>
  <variable name="Y(103,8)" index="4087" value="1"/>
  <variable name="Y(107,12)" index="4251" value="1"/>
  <variable name="Y(109,13)" index="4332" value="1"/>
  <variable name="Y(127,1)" index="5040" value="1"/>
  <variable name="Y(148,18)" index="5897" value="1"/>
  <variable name="Y(150,20)" index="5979" value="1"/>
  <variable name="Y(158,16)" index="6295" value="1"/>
  <variable name="Y(169,3)" index="6722" value="1"/>
  <variable name="Y(176,3)" index="7002" value="1"/>
  <variable name="Y(181,7)" index="7206" value="1"/>
  <variable name="X(1,2,181)" index="7580" value="1"/>
  <variable name="X(1,3,150)" index="7734" value="1"/>
  <variable name="X(1,4,9)" index="7778" value="1"/>
  <variable name="X(1,8,47)" index="8001" value="1"/>
  <variable name="X(1,14,58)" index="8197" value="1"/>
  <variable name="X(1,23,127)" index="8451" value="1"/>
  <variable name="X(2,1,9)" index="8518" value="1"/>
  <variable name="X(2,7,181)" index="8875" value="1"/>
  <variable name="X(2,24,60)" index="8939" value="1"/>
  <variable name="X(3,1,176)" index="9240" value="1"/>
  <variable name="X(3,19,22)" index="9271" value="1"/>
  <variable name="X(3,20,150)" index="9584" value="1"/>
  <variable name="X(3,25,169)" index="9788" value="1"/>
  <variable name="X(4,1,181)" index="9985" value="1"/>
  <variable name="X(4,13,17)" index="10006" value="1"/>
  <variable name="X(4,26,9)" index="10183" value="1"/>
  <variable name="X(5,8,53)" index="10412" value="1"/>
  <variable name="X(6,8,58)" index="10602" value="1"/>
  <variable name="X(6,28,10)" index="10739" value="1"/>
  <variable name="X(7,2,60)" index="10974" value="1"/>
  <variable name="X(7,29,181)" index="11280" value="1"/>
  <variable name="X(8,1,58)" index="11342" value="1"/>
  <variable name="X(8,6,10)" index="11479" value="1"/>
  <variable name="X(8,9,47)" index="11701" value="1"/>
  <variable name="X(8,30,103)" index="11942" value="1"/>
  <variable name="X(9,8,103)" index="12127" value="1"/>
  <variable name="X(9,10,14)" index="12223" value="1"/>
  <variable name="X(9,11,47)" index="12441" value="1"/>
  <variable name="X(9,12,16)" index="12595" value="1"/>
  <variable name="X(9,31,96)" index="12860" value="1"/>
  <variable name="X(10,9,96)" index="13045" value="1"/>
  <variable name="X(10,32,14)" index="13148" value="1"/>
  <variable name="X(11,9,103)" index="13422" value="1"/>
  <variable name="X(11,33,47)" index="13551" value="1"/>
  <variable name="X(12,9,107)" index="13796" value="1"/>
  <variable name="X(12,34,16)" index="13890" value="1"/>
  <variable name="X(13,4,109)" index="14168" value="1"/>
  <variable name="X(13,35,17)" index="14261" value="1"/>
  <variable name="X(14,1,127)" index="14556" value="1"/>
  <variable name="X(14,15,19)" index="14633" value="1"/>
  <variable name="X(14,16,158)" index="14957" value="1"/>
  <variable name="X(14,18,148)" index="15132" value="1"/>
  <variable name="X(14,36,58)" index="15227" value="1"/>
  <variable name="X(15,14,127)" index="15481" value="1"/>
  <variable name="X(15,37,19)" index="15558" value="1"/>
  <variable name="X(16,14,148)" index="15872" value="1"/>
  <variable name="X(16,38,158)" index="16067" value="1"/>
  <variable name="X(17,18,158)" index="16252" value="1"/>
  <variable name="X(18,14,158)" index="16437" value="1"/>
  <variable name="X(18,40,148)" index="16612" value="1"/>
  <variable name="X(19,41,22)" index="16671" value="1"/>
  <variable name="X(20,3,169)" index="17003" value="1"/>
  <variable name="X(20,42,150)" index="17169" value="1"/>
  <variable name="X(21,3,176)" index="17380" value="1"/>
  <variable name="X(22,4,181)" index="17570" value="1"/>
  <variable name="C(9,1)" index="17595" value="1"/>
  <variable name="C(9,4)" index="17596" value="2"/>
  <variable name="C(10,6)" index="17600" value="1"/>
  <variable name="C(14,10)" index="17614" value="1"/>
  <variable name="C(16,12)" index="17624" value="1"/>
  <variable name="C(17,13)" index="17628" value="1"/>
  <variable name="C(19,15)" index="17635" value="1"/>
  <variable name="C(22,19)" index="17647" value="1"/>
  <variable name="C(47,8)" index="17734" value="1.0000000020000002"/>
  <variable name="C(47,9)" index="17735" value="2.0000000020000002"/>
  <variable name="C(47,11)" index="17736" value="3.0000000020000002"/>
  <variable name="C(58,8)" index="17775" value="1"/>
  <variable name="C(58,1)" index="17776" value="2"/>
  <variable name="C(58,14)" index="17777" value="3"/>
  <variable name="C(60,2)" index="17782" value="1"/>
  <variable name="C(96,9)" index="17913" value="1"/>
  <variable name="C(103,9)" index="17946" value="1"/>
  <variable name="C(103,8)" index="17947" value="2"/>
  <variable name="C(127,14)" index="18035" value="1"/>
  <variable name="C(127,1)" index="18036" value="2"/>
  <variable name="C(148,14)" index="18122" value="1"/>
  <variable name="C(148,18)" index="18123" value="2"/>
  <variable name="C(150,3)" index="18132" value="1"/>
  <variable name="C(150,20)" index="18133" value="2"/>
  <variable name="C(158,18)" index="18169" value="1"/>
  <variable name="C(158,14)" index="18170" value="2"/>
  <variable name="C(158,16)" index="18171" value="3"/>
  <variable name="C(169,3)" index="18210" value="0.99999999999999978"/>
  <variable name="C(176,3)" index="18239" value="1"/>
  <variable name="C(181,4)" index="18259" value="1"/>
  <variable name="C(181,1)" index="18260" value="2"/>
  <variable name="C(181,2)" index="18261" value="3"/>
  <variable name="C(181,7)" index="18262" value="4"/>
 </variables>
</CPLEXSolution>
